
Value of objective function: 109.00000000

Actual values of the variables:
t1                              1
t2                              1
t3                              0
t4                              0
t5                              1
t6                              0
t7                              0
t8                              1
t9                              0
t10                             1
t11                             1
t12                             1
t13                             0
t14                             0
t15                             1
t16                             1
t17                             0
t18                             1
t19                             1
t20                             1
t21                             0
t22                             1
t23                             1
t24                             0
t25                             1
t26                             1
t27                             0
t28                             1
t29                             1
t30                             1
t31                             0
t32                             0
t33                             1
t34                             1
t35                             1
t36                             1
t37                             1
t38                             1
t39                             0
t40                             1
t41                             0
t42                             1
t43                             1
t44                             0
t45                             0
t46                             1
t47                             0
t48                             0
t49                             0
t50                             1
t51                             1
t52                             1
t53                             1
t54                             0
t55                             0
t56                             1
t57                             1
t58                             1
t59                             1
t60                             1
t61                             1
t62                             1
t63                             0
t64                             1
t65                             1
t66                             1
t67                             1
t68                             1
t69                             0
t70                             0
t71                             1
t72                             0
t73                             1
t74                             0
t75                             1
t76                             1
t77                             1
t78                             0
t79                             1
t80                             1
t81                             1
t82                             0
t83                             0
t84                             0
t85                             0
t86                             0
t87                             1
t88                             0
t89                             0
t90                             1
t91                             0
t92                             1
t93                             1
t94                             0
t95                             0
t96                             0
t97                             1
t98                             0
t99                             0
t100                            0
t101                            0
t102                            0
t103                            1
t104                            0
t105                            0
t106                            0
t107                            1
t108                            0
t109                            0
t110                            0
t111                            1
t112                            0
t113                            1
t114                            0
t115                            1
t116                            0
t117                            1
t118                            0
t119                            0
t120                            0
t121                            0
t122                            0
t123                            0
t124                            1
t125                            1
t126                            0
t127                            0
t128                            1
t129                            0
t130                            1
t131                            1
t132                            1
t133                            1
t134                            1
t135                            0
t136                            0
t137                            1
t138                            1
t139                            1
t140                            1
t141                            1
t142                            1
t143                            1
t144                            0
t145                            1
t146                            0
t147                            0
t148                            1
t149                            0
t150                            0
t151                            0
t152                            0
t153                            1
t154                            1
t155                            0
t156                            1
t157                            0
t158                            0
t159                            1
t160                            0
t161                            0
t162                            0
t163                            1
t164                            1
t165                            0
t166                            0
t167                            1
t168                            1
t169                            1
t170                            0
t171                            1
t172                            1
t173                            1
t174                            1
t175                            1
t176                            0
t177                            1
t178                            1
t179                            0
t180                            0
t181                            0
t182                            0
t183                            0
t184                            0
t185                            0
t186                            0
t187                            0
t188                            0
t189                            0
t190                            0
t191                            0
t192                            1
t193                            0
t194                            0
t195                            0
t196                            0
t197                            0
t198                            1
t199                            0
t200                            0
t201                            0
t202                            0
t203                            0
t204                            0
t205                            0
t206                            0
t207                            0
t208                            1
t209                            0
t210                            0
t211                            0
t212                            0
t213                            1
t214                            0
t215                            0
t216                            0
t217                            0
t218                            0
t219                            0
t220                            0
t221                            1
t222                            1
t223                            0
t224                            1
t225                            1
t226                            0
t227                            1
t228                            0
t229                            1
t230                            1
t231                            1
t232                            0
